param ProdCap = 120;


param InvCap = 70;


param cost := 1 14 2 19 3 15 4 11 5 10 6 7 7 4 8 5 9 7 10 10 11 11 12 13;


param demand := 1 110 2 70 3 85 4 90 5 140 6 90 7 40 8 80 9 100 10 105 11 140 12 80;